c
c
c
c
c
17 153
0 0 -1
0 1 4
0 2 3
0 3 30
0 4 1
0 5 19
0 6 23
0 7 7
0 8 27
0 9 20
0 10 22
0 11 12
0 12 4
0 13 6
0 14 19
0 15 24
0 16 1
1 1 -1
1 2 30
1 3 3
1 4 8
1 5 18
1 6 3
1 7 9
1 8 11
1 9 14
1 10 10
1 11 13
1 12 25
1 13 20
1 14 22
1 15 18
1 16 11
2 2 -1
2 3 16
2 4 21
2 5 15
2 6 21
2 7 23
2 8 15
2 9 4
2 10 22
2 11 1
2 12 7
2 13 17
2 14 22
2 15 10
2 16 8
3 3 -1
3 4 22
3 5 21
3 6 25
3 7 25
3 8 26
3 9 10
3 10 1
3 11 28
3 12 27
3 13 4
3 14 5
3 15 25
3 16 11
4 4 -1
4 5 21
4 6 17
4 7 3
4 8 23
4 9 24
4 10 11
4 11 30
4 12 30
4 13 16
4 14 16
4 15 30
4 16 28
5 5 -1
5 6 18
5 7 15
5 8 7
5 9 10
5 10 27
5 11 15
5 12 4
5 13 16
5 14 8
5 15 27
5 16 30
6 6 -1
6 7 23
6 8 6
6 9 24
6 10 19
6 11 2
6 12 11
6 13 1
6 14 8
6 15 26
6 16 17
7 7 -1
7 8 12
7 9 28
7 10 23
7 11 27
7 12 9
7 13 23
7 14 22
7 15 21
7 16 21
8 8 -1
8 9 22
8 10 22
8 11 15
8 12 8
8 13 5
8 14 28
8 15 16
8 16 19
9 9 -1
9 10 19
9 11 28
9 12 22
9 13 8
9 14 4
9 15 30
9 16 16
10 10 -1
10 11 21
10 12 24
10 13 23
10 14 15
10 15 14
10 16 18
11 11 -1
11 12 1
11 13 21
11 14 28
11 15 29
11 16 17
12 12 -1
12 13 18
12 14 19
12 15 4
12 16 29
13 13 -1
13 14 26
13 15 4
13 16 19
14 14 -1
14 15 12
14 16 27
15 15 -1
15 16 21
16 16 -1
